c turning on binary mode checking
c parsing input formula with 259840 variables and 1039929 clauses
c finished parsing, read 3064399 bytes from proof file
c detected empty clause; start verification via backward checking
c 5249 of 1039929 clauses in core                            
c 2005 of 117626 lemmas in core using 62276 resolution steps
c 0 RAT lemmas in core; 342 redundant literals in core lemmas
s VERIFIED
c verification time: 1.328 seconds
